unsat
(forall ((A (_ BitVec 20))
         (B (_ BitVec 20))
         (C (_ BitVec 20))
         (D (_ BitVec 20))
         (E (_ BitVec 20))
         (F (_ BitVec 20))
         (G (_ BitVec 20))
         (H (_ BitVec 20))
         (I (_ BitVec 20))
         (J (_ BitVec 20))
         (K (_ BitVec 20))
         (L (_ BitVec 20))
         (M (_ BitVec 20))
         (N (_ BitVec 20))
         (O (_ BitVec 20))
         (P (_ BitVec 20))
         (Q (_ BitVec 20))
         (R (_ BitVec 20))
         (S (_ BitVec 20))
         (T (_ BitVec 20))
         (U (_ BitVec 18))
         (V (_ BitVec 20))
         (W (_ BitVec 18))
         (X (_ BitVec 20))
         (Y (_ BitVec 20))
         (Z (_ BitVec 38))
         (A1 (_ BitVec 1))
         (B1 (_ BitVec 20))
         (C1 (_ BitVec 20))
         (D1 (_ BitVec 1))
         (E1 (_ BitVec 20))
         (F1 (_ BitVec 20))
         (G1 (_ BitVec 20))
         (H1 (_ BitVec 20))
         (I1 (_ BitVec 20))
         (J1 (_ BitVec 20))
         (K1 (_ BitVec 20))
         (L1 (_ BitVec 38))
         (M1 (_ BitVec 20))
         (N1 (_ BitVec 38))
         (O1 (_ BitVec 1))
         (P1 (_ BitVec 38))
         (Q1 (_ BitVec 20))
         (R1 (_ BitVec 1))
         (S1 (_ BitVec 20))
         (T1 (_ BitVec 38))
         (U1 (_ BitVec 38))
         (V1 (_ BitVec 1))
         (W1 (_ BitVec 20))
         (X1 (_ BitVec 20))
         (Y1 (_ BitVec 20))
         (Z1 (_ BitVec 20))
         (A2 (_ BitVec 14))
         (B2 (_ BitVec 20))
         (C2 (_ BitVec 20))
         (D2 (_ BitVec 20))
         (E2 (_ BitVec 20))
         (F2 (_ BitVec 1))
         (G2 (_ BitVec 22))
         (H2 (_ BitVec 20))
         (I2 (_ BitVec 20))
         (J2 (_ BitVec 20))
         (K2 (_ BitVec 1))
         (L2 (_ BitVec 20))
         (M2 (_ BitVec 1))
         (N2 (_ BitVec 1))
         (O2 (_ BitVec 1))
         (P2 (_ BitVec 38))
         (Q2 (_ BitVec 14))
         (R2 (_ BitVec 22))
         (S2 (_ BitVec 14))
         (T2 (_ BitVec 22))
         (U2 (_ BitVec 14))
         (V2 (_ BitVec 22))
         (W2 (_ BitVec 14))
         (X2 (_ BitVec 22))
         (Y2 (_ BitVec 14))
         (Z2 (_ BitVec 38))
         (A3 (_ BitVec 22))
         (B3 (_ BitVec 14))
         (C3 (_ BitVec 22))
         (D3 (_ BitVec 22))
         (E3 (_ BitVec 20))
         (F3 (_ BitVec 16))
         (G3 (_ BitVec 38))
         (H3 (_ BitVec 30))
         (I3 (_ BitVec 30))
         (J3 (_ BitVec 20))
         (K3 (_ BitVec 20))
         (L3 (_ BitVec 20))
         (M3 (_ BitVec 20))
         (N3 (_ BitVec 20))
         (O3 (_ BitVec 20))
         (P3 (_ BitVec 20))
         (Q3 (_ BitVec 16))
         (R3 (_ BitVec 20))
         (S3 (_ BitVec 18))
         (T3 (_ BitVec 30))
         (U3 (_ BitVec 1))
         (V3 (_ BitVec 38))
         (W3 (_ BitVec 30)))
  (! (let ((a!1 (= ((_ extract 23 2)
                     (bvadd ((_ extract 37 14) P1) (concat #b00 C3)))
                   #b0000000000000000000000))
           (a!2 (= ((_ extract 25 4)
                     (bvadd ((_ extract 37 12) Z2) (concat #x0 A3)))
                   #b0000000000000000000000))
           (a!3 (= ((_ extract 29 8)
                     (bvadd (concat #x00 V2) ((_ extract 37 8) Z)))
                   #b0000000000000000000000))
           (a!4 (= ((_ extract 27 6)
                     (bvadd ((_ extract 37 10) N1) (concat #b000000 X2)))
                   #b0000000000000000000000))
           (a!5 (= ((_ extract 31 10)
                     (bvadd (concat #b0000000000 T2) ((_ extract 37 6) L1)))
                   #b0000000000000000000000))
           (a!6 ((_ extract 22 14)
                  (bvadd (concat #b000 ((_ extract 21 2) G2)) (concat #b0 D3))))
           (a!7 (or (not (= ((_ extract 0 0) B2) #b1))
                    (= ((_ extract 0 0) X) #b1)))
           (a!8 (or ((_ bit2bool 0) H2) (not (= ((_ extract 0 0) E1) #b1))))
           (a!9 (or ((_ bit2bool 0) O) (not (= ((_ extract 0 0) C2) #b1))))
           (a!10 (or (not (= ((_ extract 0 0) C1) #b1))
                     (= ((_ extract 0 0) M1) #b1)))
           (a!11 (or ((_ bit2bool 0) I2) (not (= ((_ extract 0 0) D2) #b1))))
           (a!12 (or ((_ bit2bool 0) J1) (not (= ((_ extract 0 0) B1) #b1))))
           (a!13 (= ((_ extract 33 12)
                      (bvadd ((_ extract 37 4) T1) (concat #x000 R2)))
                    #b0000000000000000000000)))
     (let ((a!14 (and (or (not ((_ bit2bool 0) N2)) (not (= O2 #b0)))
                      (not ((_ bit2bool 11) Q2))
                      (not ((_ bit2bool 10) Q2))
                      (not ((_ bit2bool 9) Q2))
                      (not ((_ bit2bool 8) Q2))
                      (not ((_ bit2bool 7) Q2))
                      (not ((_ bit2bool 6) Q2))
                      (not ((_ bit2bool 5) Q2))
                      (not ((_ bit2bool 4) Q2))
                      (not ((_ bit2bool 3) Q2))
                      (not ((_ bit2bool 2) Q2))
                      (not ((_ bit2bool 1) Q2))
                      (not ((_ bit2bool 0) Q2))
                      (not ((_ bit2bool 7) U2))
                      (not ((_ bit2bool 6) U2))
                      (not ((_ bit2bool 5) U2))
                      (not ((_ bit2bool 4) U2))
                      (not ((_ bit2bool 3) U2))
                      (not ((_ bit2bool 2) U2))
                      (not ((_ bit2bool 1) U2))
                      (not ((_ bit2bool 0) U2))
                      (not ((_ bit2bool 5) W2))
                      (not ((_ bit2bool 4) W2))
                      (not ((_ bit2bool 3) W2))
                      (not ((_ bit2bool 2) W2))
                      (not ((_ bit2bool 1) W2))
                      (not ((_ bit2bool 0) W2))
                      (not ((_ bit2bool 9) S2))
                      (not ((_ bit2bool 8) S2))
                      (not ((_ bit2bool 7) S2))
                      (not ((_ bit2bool 6) S2))
                      (not ((_ bit2bool 5) S2))
                      (not ((_ bit2bool 4) S2))
                      (not ((_ bit2bool 3) S2))
                      (not ((_ bit2bool 2) S2))
                      (not ((_ bit2bool 1) S2))
                      (not ((_ bit2bool 0) S2))
                      (not ((_ bit2bool 3) Y2))
                      (not ((_ bit2bool 2) Y2))
                      (not ((_ bit2bool 1) Y2))
                      (not ((_ bit2bool 0) Y2))
                      (= ((_ extract 37 16) U1) #b0000000000000000000000)
                      (or (not ((_ bit2bool 0) Y1))
                          (not ((_ bit2bool 0) K1))
                          (not ((_ bit2bool 0) L)))
                      a!1
                      a!2
                      a!3
                      a!4
                      (or ((_ bit2bool 0) L)
                          ((_ bit2bool 0) Y1)
                          (not ((_ bit2bool 0) K1)))
                      a!5
                      (not ((_ bit2bool 1) B3))
                      (not ((_ bit2bool 0) B3))
                      (or ((_ bit2bool 2) U)
                          ((_ bit2bool 0) U)
                          ((_ bit2bool 1) U)
                          ((_ bit2bool 1) W)
                          (not ((_ bit2bool 1) S3)))
                      (or ((_ bit2bool 1) L)
                          ((_ bit2bool 1) Y1)
                          ((_ bit2bool 2) Y1)
                          ((_ bit2bool 0) Y1)
                          (not ((_ bit2bool 1) K1)))
                      (not (= ((_ extract 17 17) W) #b1))
                      (or ((_ bit2bool 2) S3)
                          ((_ bit2bool 2) U)
                          ((_ bit2bool 1) U)
                          ((_ bit2bool 0) S3)
                          (not ((_ bit2bool 2) W)))
                      (or ((_ bit2bool 0) X) (not ((_ bit2bool 0) G2)))
                      (= a!6 #b000000000)
                      a!7
                      a!8
                      a!9
                      a!10
                      a!11
                      a!12
                      a!13)))
       (= (INV!slice!1 A
                       B
                       C
                       D
                       E
                       F
                       G
                       H
                       I
                       J
                       K
                       L
                       M
                       N
                       O
                       P
                       Q
                       R
                       S
                       T
                       U
                       V
                       W
                       X
                       Y
                       Z
                       A1
                       B1
                       C1
                       D1
                       E1
                       F1
                       G1
                       H1
                       I1
                       J1
                       K1
                       L1
                       M1
                       N1
                       O1
                       P1
                       Q1
                       R1
                       S1
                       T1
                       U1
                       V1
                       W1
                       X1
                       Y1
                       Z1
                       A2
                       B2
                       C2
                       D2
                       E2
                       F2
                       G2
                       H2
                       I2
                       J2
                       K2
                       L2
                       M2
                       N2
                       O2
                       P2
                       Q2
                       R2
                       S2
                       T2
                       U2
                       V2
                       W2
                       X2
                       Y2
                       Z2
                       A3
                       B3
                       C3
                       D3
                       E3
                       F3
                       G3
                       H3
                       I3
                       J3
                       K3
                       L3
                       M3
                       N3
                       O3
                       P3
                       Q3
                       R3
                       S3
                       T3
                       U3
                       V3
                       W3)
          a!14)))
     :weight 0))
